[VALIDATOR STDOUT]
Checking plan: /home/jfan5/Safety-gen/runs/benchmark/optic/delivery_20260205_114717/delivery/optic_results/delivery_size13_packages1_seed13001.plan
Plan executed successfully - checking goal
Plan valid
Final value: 78 

Successful plans:
Value: 78
 /home/jfan5/Safety-gen/runs/benchmark/optic/delivery_20260205_114717/delivery/optic_results/delivery_size13_packages1_seed13001.plan 78
